p cnf 386 460
12 19 20 21 22 0
12 19 20 21 -22 0
12 19 20 -21 23 0
12 19 20 -21 -23 0
-14 10 -9 24 25 0
-14 10 -9 24 -25 0
-14 10 -9 -24 26 0
-14 10 -9 -24 -26 0
9 -7 19 27 28 0
9 -7 19 27 -28 0
9 -7 19 -27 29 0
9 -7 19 -27 -29 0
-18 -10 6 30 31 0
-18 -10 6 30 -31 0
-18 -10 6 -30 32 0
-18 -10 6 -30 -32 0
-14 4 -13 33 34 0
-14 4 -13 33 -34 0
-14 4 -13 -33 35 0
-14 4 -13 -33 -35 0
20 -5 13 36 37 0
20 -5 13 36 -37 0
20 -5 13 -36 38 0
20 -5 13 -36 -38 0
-18 14 -13 39 40 0
-18 14 -13 39 -40 0
-18 14 -13 -39 41 0
-18 14 -13 -39 -41 0
-19 1 -2 42 43 0
-19 1 -2 42 -43 0
-19 1 -2 -42 44 0
-19 1 -2 -42 -44 0
-7 12 8 45 46 0
-7 12 8 45 -46 0
-7 12 8 -45 47 0
-7 12 8 -45 -47 0
13 -4 -8 48 49 0
13 -4 -8 48 -49 0
13 -4 -8 -48 50 0
13 -4 -8 -48 -50 0
-5 16 15 51 52 0
-5 16 15 51 -52 0
-5 16 15 -51 53 0
-5 16 15 -51 -53 0
-4 2 -16 54 55 0
-4 2 -16 54 -55 0
-4 2 -16 -54 56 0
-4 2 -16 -54 -56 0
11 5 -16 57 58 0
11 5 -16 57 -58 0
11 5 -16 -57 59 0
11 5 -16 -57 -59 0
14 18 1 60 61 0
14 18 1 60 -61 0
14 18 1 -60 62 0
14 18 1 -60 -62 0
17 11 13 63 64 0
17 11 13 63 -64 0
17 11 13 -63 65 0
17 11 13 -63 -65 0
6 3 17 66 67 0
6 3 17 66 -67 0
6 3 17 -66 68 0
6 3 17 -66 -68 0
6 -8 -7 69 70 0
6 -8 -7 69 -70 0
6 -8 -7 -69 71 0
6 -8 -7 -69 -71 0
15 -11 16 72 73 0
15 -11 16 72 -73 0
15 -11 16 -72 74 0
15 -11 16 -72 -74 0
3 -11 19 75 76 0
3 -11 19 75 -76 0
3 -11 19 -75 77 0
3 -11 19 -75 -77 0
9 -12 17 78 79 0
9 -12 17 78 -79 0
9 -12 17 -78 80 0
9 -12 17 -78 -80 0
4 19 -6 81 82 0
4 19 -6 81 -82 0
4 19 -6 -81 83 0
4 19 -6 -81 -83 0
-6 8 -1 84 85 0
-6 8 -1 84 -85 0
-6 8 -1 -84 86 0
-6 8 -1 -84 -86 0
-4 -3 11 87 88 0
-4 -3 11 87 -88 0
-4 -3 11 -87 89 0
-4 -3 11 -87 -89 0
-20 -16 -19 90 91 0
-20 -16 -19 90 -91 0
-20 -16 -19 -90 92 0
-20 -16 -19 -90 -92 0
5 8 -6 93 94 0
5 8 -6 93 -94 0
5 8 -6 -93 95 0
5 8 -6 -93 -95 0
5 -12 -18 96 97 0
5 -12 -18 96 -97 0
5 -12 -18 -96 98 0
5 -12 -18 -96 -98 0
2 18 -6 99 100 0
2 18 -6 99 -100 0
2 18 -6 -99 101 0
2 18 -6 -99 -101 0
-2 -13 17 102 103 0
-2 -13 17 102 -103 0
-2 -13 17 -102 104 0
-2 -13 17 -102 -104 0
-20 11 5 105 106 0
-20 11 5 105 -106 0
-20 11 5 -105 107 0
-20 11 5 -105 -107 0
-12 -14 -11 108 109 0
-12 -14 -11 108 -109 0
-12 -14 -11 -108 110 0
-12 -14 -11 -108 -110 0
-15 19 11 111 112 0
-15 19 11 111 -112 0
-15 19 11 -111 113 0
-15 19 11 -111 -113 0
-11 -10 20 114 115 0
-11 -10 20 114 -115 0
-11 -10 20 -114 116 0
-11 -10 20 -114 -116 0
10 14 -3 117 118 0
10 14 -3 117 -118 0
10 14 -3 -117 119 0
10 14 -3 -117 -119 0
-15 6 -5 120 121 0
-15 6 -5 120 -121 0
-15 6 -5 -120 122 0
-15 6 -5 -120 -122 0
-3 -15 7 123 124 0
-3 -15 7 123 -124 0
-3 -15 7 -123 125 0
-3 -15 7 -123 -125 0
12 -6 20 126 127 0
12 -6 20 126 -127 0
12 -6 20 -126 128 0
12 -6 20 -126 -128 0
5 8 18 129 130 0
5 8 18 129 -130 0
5 8 18 -129 131 0
5 8 18 -129 -131 0
-15 14 4 132 133 0
-15 14 4 132 -133 0
-15 14 4 -132 134 0
-15 14 4 -132 -134 0
-11 -15 -16 135 136 0
-11 -15 -16 135 -136 0
-11 -15 -16 -135 137 0
-11 -15 -16 -135 -137 0
-9 17 14 138 139 0
-9 17 14 138 -139 0
-9 17 14 -138 140 0
-9 17 14 -138 -140 0
-17 1 11 141 142 0
-17 1 11 141 -142 0
-17 1 11 -141 143 0
-17 1 11 -141 -143 0
4 -8 -16 144 145 0
4 -8 -16 144 -145 0
4 -8 -16 -144 146 0
4 -8 -16 -144 -146 0
-11 6 -14 147 148 0
-11 6 -14 147 -148 0
-11 6 -14 -147 149 0
-11 6 -14 -147 -149 0
-3 13 9 150 151 0
-3 13 9 150 -151 0
-3 13 9 -150 152 0
-3 13 9 -150 -152 0
-17 19 -11 153 154 0
-17 19 -11 153 -154 0
-17 19 -11 -153 155 0
-17 19 -11 -153 -155 0
9 -8 -6 156 157 0
9 -8 -6 156 -157 0
9 -8 -6 -156 158 0
9 -8 -6 -156 -158 0
8 18 10 159 160 0
8 18 10 159 -160 0
8 18 10 -159 161 0
8 18 10 -159 -161 0
-19 -15 -3 162 163 0
-19 -15 -3 162 -163 0
-19 -15 -3 -162 164 0
-19 -15 -3 -162 -164 0
-15 -9 6 165 166 0
-15 -9 6 165 -166 0
-15 -9 6 -165 167 0
-15 -9 6 -165 -167 0
-9 13 -7 168 169 0
-9 13 -7 168 -169 0
-9 13 -7 -168 170 0
-9 13 -7 -168 -170 0
-14 -13 -2 171 172 0
-14 -13 -2 171 -172 0
-14 -13 -2 -171 173 0
-14 -13 -2 -171 -173 0
13 -5 -9 174 175 0
13 -5 -9 174 -175 0
13 -5 -9 -174 176 0
13 -5 -9 -174 -176 0
11 12 14 177 178 0
11 12 14 177 -178 0
11 12 14 -177 179 0
11 12 14 -177 -179 0
-19 -18 15 180 181 0
-19 -18 15 180 -181 0
-19 -18 15 -180 182 0
-19 -18 15 -180 -182 0
-20 -7 10 183 184 0
-20 -7 10 183 -184 0
-20 -7 10 -183 185 0
-20 -7 10 -183 -185 0
-12 -3 -5 186 187 0
-12 -3 -5 186 -187 0
-12 -3 -5 -186 188 0
-12 -3 -5 -186 -188 0
3 -4 6 189 190 0
3 -4 6 189 -190 0
3 -4 6 -189 191 0
3 -4 6 -189 -191 0
14 -9 15 192 193 0
14 -9 15 192 -193 0
14 -9 15 -192 194 0
14 -9 15 -192 -194 0
-17 11 -1 195 196 0
-17 11 -1 195 -196 0
-17 11 -1 -195 197 0
-17 11 -1 -195 -197 0
-15 20 4 198 199 0
-15 20 4 198 -199 0
-15 20 4 -198 200 0
-15 20 4 -198 -200 0
-9 -13 12 201 202 0
-9 -13 12 201 -202 0
-9 -13 12 -201 203 0
-9 -13 12 -201 -203 0
2 -16 -14 204 205 0
2 -16 -14 204 -205 0
2 -16 -14 -204 206 0
2 -16 -14 -204 -206 0
19 -1 -12 207 208 0
19 -1 -12 207 -208 0
19 -1 -12 -207 209 0
19 -1 -12 -207 -209 0
-3 4 15 210 211 0
-3 4 15 210 -211 0
-3 4 15 -210 212 0
-3 4 15 -210 -212 0
-9 4 -8 213 214 0
-9 4 -8 213 -214 0
-9 4 -8 -213 215 0
-9 4 -8 -213 -215 0
1 10 13 216 217 0
1 10 13 216 -217 0
1 10 13 -216 218 0
1 10 13 -216 -218 0
-10 18 -15 219 220 0
-10 18 -15 219 -220 0
-10 18 -15 -219 221 0
-10 18 -15 -219 -221 0
-13 11 -2 222 223 0
-13 11 -2 222 -223 0
-13 11 -2 -222 224 0
-13 11 -2 -222 -224 0
-1 -7 -10 225 226 0
-1 -7 -10 225 -226 0
-1 -7 -10 -225 227 0
-1 -7 -10 -225 -227 0
-4 -14 6 228 229 0
-4 -14 6 228 -229 0
-4 -14 6 -228 230 0
-4 -14 6 -228 -230 0
17 -4 -13 231 232 0
17 -4 -13 231 -232 0
17 -4 -13 -231 233 0
17 -4 -13 -231 -233 0
10 -1 11 234 235 0
10 -1 11 234 -235 0
10 -1 11 -234 236 0
10 -1 11 -234 -236 0
-14 7 -12 237 238 0
-14 7 -12 237 -238 0
-14 7 -12 -237 239 0
-14 7 -12 -237 -239 0
11 6 -2 240 241 0
11 6 -2 240 -241 0
11 6 -2 -240 242 0
11 6 -2 -240 -242 0
19 -6 4 243 244 0
19 -6 4 243 -244 0
19 -6 4 -243 245 0
19 -6 4 -243 -245 0
-19 -3 -8 246 247 0
-19 -3 -8 246 -247 0
-19 -3 -8 -246 248 0
-19 -3 -8 -246 -248 0
15 3 -1 249 250 0
15 3 -1 249 -250 0
15 3 -1 -249 251 0
15 3 -1 -249 -251 0
17 15 10 252 253 0
17 15 10 252 -253 0
17 15 10 -252 254 0
17 15 10 -252 -254 0
8 11 -2 255 256 0
8 11 -2 255 -256 0
8 11 -2 -255 257 0
8 11 -2 -255 -257 0
-14 8 4 258 259 0
-14 8 4 258 -259 0
-14 8 4 -258 260 0
-14 8 4 -258 -260 0
14 10 -8 261 262 0
14 10 -8 261 -262 0
14 10 -8 -261 263 0
14 10 -8 -261 -263 0
19 3 -20 264 265 0
19 3 -20 264 -265 0
19 3 -20 -264 266 0
19 3 -20 -264 -266 0
4 20 -5 267 268 0
4 20 -5 267 -268 0
4 20 -5 -267 269 0
4 20 -5 -267 -269 0
20 -7 1 270 271 0
20 -7 1 270 -271 0
20 -7 1 -270 272 0
20 -7 1 -270 -272 0
-10 8 15 273 274 0
-10 8 15 273 -274 0
-10 8 15 -273 275 0
-10 8 15 -273 -275 0
6 4 8 276 277 0
6 4 8 276 -277 0
6 4 8 -276 278 0
6 4 8 -276 -278 0
-7 -2 -14 279 280 0
-7 -2 -14 279 -280 0
-7 -2 -14 -279 281 0
-7 -2 -14 -279 -281 0
12 20 -2 282 283 0
12 20 -2 282 -283 0
12 20 -2 -282 284 0
12 20 -2 -282 -284 0
20 -11 13 285 286 0
20 -11 13 285 -286 0
20 -11 13 -285 287 0
20 -11 13 -285 -287 0
9 7 -14 288 289 0
9 7 -14 288 -289 0
9 7 -14 -288 290 0
9 7 -14 -288 -290 0
-7 -11 19 291 292 0
-7 -11 19 291 -292 0
-7 -11 19 -291 293 0
-7 -11 19 -291 -293 0
294 295 297 301 309 0
294 295 297 301 -309 0
294 295 297 -301 310 0
294 295 297 -301 -310 0
294 295 -297 302 311 0
294 295 -297 302 -311 0
294 295 -297 -302 312 0
294 295 -297 -302 -312 0
294 -295 298 303 313 0
294 -295 298 303 -313 0
294 -295 298 -303 314 0
294 -295 298 -303 -314 0
294 -295 -298 304 315 0
294 -295 -298 304 -315 0
294 -295 -298 -304 316 0
294 -295 -298 -304 -316 0
-294 296 299 305 317 0
-294 296 299 305 -317 0
-294 296 299 -305 318 0
-294 296 299 -305 -318 0
-294 296 -299 306 319 0
-294 296 -299 306 -319 0
-294 296 -299 -306 320 0
-294 296 -299 -306 -320 0
-294 -296 300 307 321 0
-294 -296 300 307 -321 0
-294 -296 300 -307 322 0
-294 -296 300 -307 -322 0
-294 -296 -300 308 323 0
-294 -296 -300 308 -323 0
-294 -296 -300 -308 324 0
-294 -296 -300 -308 -324 0
325 326 328 332 340 0
325 326 328 332 -340 0
325 326 328 -332 341 0
325 326 328 -332 -341 0
325 326 -328 333 342 0
325 326 -328 333 -342 0
325 326 -328 -333 343 0
325 326 -328 -333 -343 0
325 -326 329 334 344 0
325 -326 329 334 -344 0
325 -326 329 -334 345 0
325 -326 329 -334 -345 0
325 -326 -329 335 346 0
325 -326 -329 335 -346 0
325 -326 -329 -335 347 0
325 -326 -329 -335 -347 0
-325 327 330 336 348 0
-325 327 330 336 -348 0
-325 327 330 -336 349 0
-325 327 330 -336 -349 0
-325 327 -330 337 350 0
-325 327 -330 337 -350 0
-325 327 -330 -337 351 0
-325 327 -330 -337 -351 0
-325 -327 331 338 352 0
-325 -327 331 338 -352 0
-325 -327 331 -338 353 0
-325 -327 331 -338 -353 0
-325 -327 -331 339 354 0
-325 -327 -331 339 -354 0
-325 -327 -331 -339 355 0
-325 -327 -331 -339 -355 0
356 357 359 363 371 0
356 357 359 363 -371 0
356 357 359 -363 372 0
356 357 359 -363 -372 0
356 357 -359 364 373 0
356 357 -359 364 -373 0
356 357 -359 -364 374 0
356 357 -359 -364 -374 0
356 -357 360 365 375 0
356 -357 360 365 -375 0
356 -357 360 -365 376 0
356 -357 360 -365 -376 0
356 -357 -360 366 377 0
356 -357 -360 366 -377 0
356 -357 -360 -366 378 0
356 -357 -360 -366 -378 0
-356 358 361 367 379 0
-356 358 361 367 -379 0
-356 358 361 -367 380 0
-356 358 361 -367 -380 0
-356 358 -361 368 381 0
-356 358 -361 368 -381 0
-356 358 -361 -368 382 0
-356 358 -361 -368 -382 0
-356 -358 362 369 383 0
-356 -358 362 369 -383 0
-356 -358 362 -369 384 0
-356 -358 362 -369 -384 0
-356 -358 -362 370 385 0
-356 -358 -362 370 -385 0
-356 -358 -362 -370 386 0
-356 -358 -362 -370 -386 0

